(set-info :smt-lib-version 2.6)
(set-logic QF_FPBV)
(set-option :produce-models true)
(set-info :source |Random FP created by PyMPF|)
(set-info :license |https://www.gnu.org/licenses/gpl-3.0.html|)
(set-info :category random)
(set-info :status sat)
;; fp.from.ubv(BitVec 16)
(declare-const x (_ BitVec 16))
(assert (= x #b1110110111000001))
;; x should be 60865

(declare-const r Float32)
(assert (= r ((_ to_fp_unsigned 8 24) RNA x)))
(assert (fp.eq r (fp #b0 #b10001110 #b11011011100000100000000)))
(check-sat)
(exit)
